(set-logic QF_UF)
(declare-fun A0 () Bool)
(declare-fun A2 () Bool)
(declare-fun A3 () Bool)
(declare-fun A4 () Bool)
(declare-fun A5 () Bool)
(declare-fun A6 () Bool)
(declare-fun A7 () Bool)
(declare-fun A8 () Bool)
(declare-fun A9 () Bool)
(declare-fun A11 () Bool)
(declare-fun A12 () Bool)
(declare-fun A13 () Bool)
(declare-fun A14 () Bool)
(declare-fun A15 () Bool)
(declare-fun A16 () Bool)
(declare-fun A18 () Bool)
(declare-fun A20 () Bool)
(declare-fun A21 () Bool)
(declare-fun A22 () Bool)
(declare-fun A24 () Bool)
(assert (let ((.def_0 (not A16))) (let ((.def_1 (or A21 .def_0))) (let ((.def_2 (not .def_1))) (let ((.def_3 (not A22))) (let ((.def_4 (and .def_3 A5))) (let ((.def_5 (= .def_4 .def_2))) (let ((.def_6 (and A6 A15))) (let ((.def_7 (not A2))) (let ((.def_8 (or A3 .def_7))) (let ((.def_9 (and .def_8 .def_6))) (let ((.def_10 (and .def_9 .def_5))) (let ((.def_11 (or A9 A12))) (let ((.def_12 (or A22 A3))) (let ((.def_13 (and .def_12 .def_11))) (let ((.def_14 (not .def_13))) (let ((.def_15 (= A24 A8))) (let ((.def_16 (not .def_15))) (let ((.def_17 (not A13))) (let ((.def_18 (and .def_17 .def_3))) (let ((.def_19 (or .def_18 .def_16))) (let ((.def_20 (not .def_19))) (let ((.def_21 (and .def_20 .def_14))) (let ((.def_22 (not .def_21))) (let ((.def_23 (and .def_22 .def_10))) (let ((.def_24 (not A11))) (let ((.def_25 (and A8 .def_24))) (let ((.def_26 (not A12))) (let ((.def_27 (and .def_26 A9))) (let ((.def_28 (or .def_27 .def_25))) (let ((.def_29 (not A20))) (let ((.def_30 (and A9 .def_29))) (let ((.def_31 (not .def_30))) (let ((.def_32 (or A9 A22))) (let ((.def_33 (not .def_32))) (let ((.def_34 (and .def_33 .def_31))) (let ((.def_35 (and .def_34 .def_28))) (let ((.def_36 (not .def_35))) (let ((.def_37 (and A8 A4))) (let ((.def_38 (not .def_37))) (let ((.def_39 (not A18))) (let ((.def_40 (not A24))) (let ((.def_41 (or .def_40 .def_39))) (let ((.def_42 (or .def_41 .def_38))) (let ((.def_43 (not A15))) (let ((.def_44 (and .def_43 .def_40))) (let ((.def_45 (not .def_44))) (let ((.def_46 (= A0 .def_26))) (let ((.def_47 (not .def_46))) (let ((.def_48 (and .def_47 .def_45))) (let ((.def_49 (and .def_48 .def_42))) (let ((.def_50 (not .def_49))) (let ((.def_51 (= .def_50 .def_36))) (let ((.def_52 (not .def_51))) (let ((.def_53 (or .def_52 .def_23))) (let ((.def_54 (and A16 A24))) (let ((.def_55 (or A18 A9))) (let ((.def_56 (not .def_55))) (let ((.def_57 (or .def_56 .def_54))) (let ((.def_58 (not .def_57))) (let ((.def_59 (or A3 A7))) (let ((.def_60 (not .def_59))) (let ((.def_61 (or A7 A0))) (let ((.def_62 (not .def_61))) (let ((.def_63 (and .def_62 .def_60))) (let ((.def_64 (not .def_63))) (let ((.def_65 (or .def_64 .def_58))) (let ((.def_66 (or A22 A15))) (let ((.def_67 (not .def_66))) (let ((.def_68 (not A7))) (let ((.def_69 (not A5))) (let ((.def_70 (and .def_69 .def_68))) (let ((.def_71 (= .def_70 .def_67))) (let ((.def_72 (not .def_71))) (let ((.def_73 (not A0))) (let ((.def_74 (or A20 .def_73))) (let ((.def_75 (and A18 .def_26))) (let ((.def_76 (not .def_75))) (let ((.def_77 (or .def_76 .def_74))) (let ((.def_78 (not .def_77))) (let ((.def_79 (or .def_78 .def_72))) (let ((.def_80 (and .def_79 .def_65))) (let ((.def_81 (not .def_80))) (let ((.def_82 (or .def_73 A14))) (let ((.def_83 (not A3))) (let ((.def_84 (and .def_83 A13))) (let ((.def_85 (not .def_84))) (let ((.def_86 (or .def_85 .def_82))) (let ((.def_87 (not A14))) (let ((.def_88 (or .def_87 .def_26))) (let ((.def_89 (not .def_88))) (let ((.def_90 (and .def_3 A14))) (let ((.def_91 (not .def_90))) (let ((.def_92 (and .def_91 .def_89))) (let ((.def_93 (not .def_92))) (let ((.def_94 (= .def_93 .def_86))) (let ((.def_95 (not .def_94))) (let ((.def_96 (or .def_3 .def_0))) (let ((.def_97 (and .def_83 .def_87))) (let ((.def_98 (= .def_97 .def_96))) (let ((.def_99 (and .def_24 .def_68))) (let ((.def_100 (not .def_99))) (let ((.def_101 (not A8))) (let ((.def_102 (or .def_101 A11))) (let ((.def_103 (not .def_102))) (let ((.def_104 (and .def_103 .def_100))) (let ((.def_105 (not .def_104))) (let ((.def_106 (= .def_105 .def_98))) (let ((.def_107 (not .def_106))) (let ((.def_108 (and .def_107 .def_95))) (let ((.def_109 (not .def_108))) (let ((.def_110 (or .def_109 .def_81))) (let ((.def_111 (or .def_110 .def_53))) (let ((.def_112 (not .def_111))) .def_112))))))))))))))))))))))))))))))))))))))))))))))))))))))))))))))))))))))))))))))))))))))))))))))))))))))))))))))))))
(check-sat)
